unsat
(define-fun f ((x (_ BitVec 32))) (_ BitVec 32) (bvneg (bvsdiv x (bvudiv #b00000000000000000000000000000000 x))))
0.89user 0.02system 0:00.91elapsed 100%CPU (0avgtext+0avgdata 54004maxresident)k
0inputs+8outputs (0major+8147minor)pagefaults 0swaps
